\ Model Farming Ted-Dual
\ LP format - for model browsing. Use MPS format to capture full model detail.
Minimize
  500 x - 200 y1[1] - 200 y1[2] - 200 y1[3] - 200 y1[4] - 200 y1[5]
   - 200 y1[6] - 200 y1[7] - 200 y1[8] - 200 y1[9] - 240 y2[1] - 240 y2[2]
   - 240 y2[3] - 240 y2[4] - 240 y2[5] - 240 y2[6] - 240 y2[7] - 240 y2[8]
   - 240 y2[9] + 6000 y4[1] + 6000 y4[2] + 6000 y4[3] + 6000 y4[4]
   + 6000 y4[5] + 6000 y4[6] + 6000 y4[7] + 6000 y4[8] + 6000 y4[9]
   + 1e+09 la[0] + 1e+09 la[1] + 1e+09 la[2] + 1e+09 a1[1] + 1e+09 a1[2]
   + 1e+09 a1[3] + 1e+09 a1[4] + 1e+09 a1[5] + 1e+09 a1[6] + 1e+09 a1[7]
   + 1e+09 a1[8] + 1e+09 a1[9] + 1e+09 a2[1] + 1e+09 a2[2] + 1e+09 a2[3]
   + 1e+09 a2[4] + 1e+09 a2[5] + 1e+09 a2[6] + 1e+09 a2[7] + 1e+09 a2[8]
   + 1e+09 a2[9] + 1e+09 a3[1] + 1e+09 a3[2] + 1e+09 a3[3] + 1e+09 a3[4]
   + 1e+09 a3[5] + 1e+09 a3[6] + 1e+09 a3[7] + 1e+09 a3[8] + 1e+09 a3[9]
   + 1e+09 a4[1] + 1e+09 a4[2] + 1e+09 a4[3] + 1e+09 a4[4] + 1e+09 a4[5]
   + 1e+09 a4[6] + 1e+09 a4[7] + 1e+09 a4[8] + 1e+09 a4[9] + 1e+09 a5[1]
   + 1e+09 a5[2] + 1e+09 a5[3] + 1e+09 a5[4] + 1e+09 a5[5] + 1e+09 a5[6]
   + 1e+09 a5[7] + 1e+09 a5[8] + 1e+09 a5[9] + 1e+09 a6[1] + 1e+09 a6[2]
   + 1e+09 a6[3] + 1e+09 a6[4] + 1e+09 a6[5] + 1e+09 a6[6] + 1e+09 a6[7]
   + 1e+09 a6[8] + 1e+09 a6[9]
Subject To
 linkingconstraints: - x + 4.5 y1[1] + 4 y1[2] + 3.5 y1[3] + 3 y1[4]
   + 2.5 y1[5] + 2 y1[6] + 1.5 y1[7] + y1[8] + 0.5 y1[9] + l[0] + la[0]
   = 150
 linkingconstraints: - x + 5.4 y2[1] + 4.8 y2[2] + 4.2 y2[3] + 3.6 y2[4]
   + 3 y2[5] + 2.4 y2[6] + 1.8 y2[7] + 1.2 y2[8] + 0.6 y2[9] + l[1] + la[1]
   = 230
 linkingconstraints: - x + 36 y3[1] + 32 y3[2] + 28 y3[3] + 24 y3[4]
   + 20 y3[5] + 16 y3[6] + 12 y3[7] + 8 y3[8] + 4 y3[9] + l[2] + la[2]
   = 260
 sub1: y1[1] + s1[1] + a1[1] = 26.44444444444444
 sub2: y1[1] - s2[1] + a2[1] = 18.88888888888889
 sub3: y2[1] + s3[1] + a3[1] = 23.33333333333333
 sub4: y2[1] - s4[1] + a4[1] = 16.66666666666667
 sub5: y3[1] + y4[1] - s5[1] + a5[1] = 4
 sub6: y3[1] - s6[1] + a6[1] = 1.111111111111111
 sub1: y1[2] + s1[2] + a1[2] = 26.44444444444444
 sub2: y1[2] - s2[2] + a2[2] = 18.88888888888889
 sub3: y2[2] + s3[2] + a3[2] = 23.33333333333333
 sub4: y2[2] - s4[2] + a4[2] = 16.66666666666667
 sub5: y3[2] + y4[2] - s5[2] + a5[2] = 4
 sub6: y3[2] - s6[2] + a6[2] = 1.111111111111111
 sub1: y1[3] + s1[3] + a1[3] = 26.44444444444444
 sub2: y1[3] - s2[3] + a2[3] = 18.88888888888889
 sub3: y2[3] + s3[3] + a3[3] = 23.33333333333333
 sub4: y2[3] - s4[3] + a4[3] = 16.66666666666667
 sub5: y3[3] + y4[3] - s5[3] + a5[3] = 4
 sub6: y3[3] - s6[3] + a6[3] = 1.111111111111111
 sub1: y1[4] + s1[4] + a1[4] = 26.44444444444444
 sub2: y1[4] - s2[4] + a2[4] = 18.88888888888889
 sub3: y2[4] + s3[4] + a3[4] = 23.33333333333333
 sub4: y2[4] - s4[4] + a4[4] = 16.66666666666667
 sub5: y3[4] + y4[4] - s5[4] + a5[4] = 4
 sub6: y3[4] - s6[4] + a6[4] = 1.111111111111111
 sub1: y1[5] + s1[5] + a1[5] = 26.44444444444444
 sub2: y1[5] - s2[5] + a2[5] = 18.88888888888889
 sub3: y2[5] + s3[5] + a3[5] = 23.33333333333333
 sub4: y2[5] - s4[5] + a4[5] = 16.66666666666667
 sub5: y3[5] + y4[5] - s5[5] + a5[5] = 4
 sub6: y3[5] - s6[5] + a6[5] = 1.111111111111111
 sub1: y1[6] + s1[6] + a1[6] = 26.44444444444444
 sub2: y1[6] - s2[6] + a2[6] = 18.88888888888889
 sub3: y2[6] + s3[6] + a3[6] = 23.33333333333333
 sub4: y2[6] - s4[6] + a4[6] = 16.66666666666667
 sub5: y3[6] + y4[6] - s5[6] + a5[6] = 4
 sub6: y3[6] - s6[6] + a6[6] = 1.111111111111111
 sub1: y1[7] + s1[7] + a1[7] = 26.44444444444444
 sub2: y1[7] - s2[7] + a2[7] = 18.88888888888889
 sub3: y2[7] + s3[7] + a3[7] = 23.33333333333333
 sub4: y2[7] - s4[7] + a4[7] = 16.66666666666667
 sub5: y3[7] + y4[7] - s5[7] + a5[7] = 4
 sub6: y3[7] - s6[7] + a6[7] = 1.111111111111111
 sub1: y1[8] + s1[8] + a1[8] = 26.44444444444444
 sub2: y1[8] - s2[8] + a2[8] = 18.88888888888889
 sub3: y2[8] + s3[8] + a3[8] = 23.33333333333333
 sub4: y2[8] - s4[8] + a4[8] = 16.66666666666667
 sub5: y3[8] + y4[8] - s5[8] + a5[8] = 4
 sub6: y3[8] - s6[8] + a6[8] = 1.111111111111111
 sub1: y1[9] + s1[9] + a1[9] = 26.44444444444444
 sub2: y1[9] - s2[9] + a2[9] = 18.88888888888889
 sub3: y2[9] + s3[9] + a3[9] = 23.33333333333333
 sub4: y2[9] - s4[9] + a4[9] = 16.66666666666667
 sub5: y3[9] + y4[9] - s5[9] + a5[9] = 4
 sub6: y3[9] - s6[9] + a6[9] = 1.111111111111111
Bounds
End
